-71.0 8.0 0.0 1.0 3.0 0.0 3.0 1.0 4.0 10.0 3.0 0.0 0.0 5.0 3.0 7.0 4.0 8.0 1.0 0.0 10.0 
8.0 -110.0 5.0 10.0 8.0 10.0 6.0 2.0 10.0 2.0 2.0 5.0 5.0 5.0 3.0 6.0 5.0 9.0 5.0 4.0 0.0 
0.0 5.0 -91.0 5.0 7.0 9.0 3.0 3.0 1.0 10.0 1.0 6.0 10.0 0.0 8.0 2.0 4.0 3.0 5.0 4.0 5.0 
1.0 10.0 5.0 -127.0 9.0 5.0 7.0 10.0 5.0 8.0 10.0 9.0 4.0 6.0 9.0 2.0 8.0 4.0 3.0 6.0 6.0 
3.0 8.0 7.0 9.0 -117.0 5.0 2.0 8.0 8.0 10.0 2.0 5.0 5.0 8.0 0.0 8.0 5.0 8.0 9.0 4.0 3.0 
0.0 10.0 9.0 5.0 5.0 -113.0 4.0 0.0 9.0 0.0 10.0 9.0 3.0 7.0 8.0 2.0 8.0 4.0 3.0 9.0 8.0 
3.0 6.0 3.0 7.0 2.0 4.0 -107.0 10.0 2.0 8.0 8.0 7.0 1.0 10.0 0.0 10.0 9.0 5.0 8.0 3.0 1.0 
1.0 2.0 3.0 10.0 8.0 0.0 10.0 -103.0 6.0 0.0 9.0 8.0 0.0 9.0 3.0 9.0 4.0 5.0 10.0 4.0 2.0 
4.0 10.0 1.0 5.0 8.0 9.0 2.0 6.0 -99.0 6.0 8.0 2.0 1.0 7.0 9.0 5.0 2.0 1.0 3.0 8.0 2.0 
10.0 2.0 10.0 8.0 10.0 0.0 8.0 0.0 6.0 -110.0 3.0 6.0 9.0 0.0 4.0 1.0 9.0 2.0 8.0 4.0 10.0 
3.0 2.0 1.0 10.0 2.0 10.0 8.0 9.0 8.0 3.0 -91.0 9.0 0.0 6.0 3.0 10.0 1.0 1.0 5.0 0.0 0.0 
0.0 5.0 6.0 9.0 5.0 9.0 7.0 8.0 2.0 6.0 9.0 -118.0 0.0 7.0 3.0 8.0 6.0 8.0 9.0 10.0 1.0 
0.0 5.0 10.0 4.0 5.0 3.0 1.0 0.0 1.0 9.0 0.0 0.0 -76.0 6.0 0.0 7.0 9.0 0.0 9.0 4.0 3.0 
5.0 5.0 0.0 6.0 8.0 7.0 10.0 9.0 7.0 0.0 6.0 7.0 6.0 -113.0 7.0 5.0 6.0 2.0 1.0 9.0 7.0 
3.0 3.0 8.0 9.0 0.0 8.0 0.0 3.0 9.0 4.0 3.0 3.0 0.0 7.0 -94.0 7.0 4.0 7.0 7.0 1.0 8.0 
7.0 6.0 2.0 2.0 8.0 2.0 10.0 9.0 5.0 1.0 10.0 8.0 7.0 5.0 7.0 -119.0 10.0 2.0 9.0 0.0 9.0 
4.0 5.0 4.0 8.0 5.0 8.0 9.0 4.0 2.0 9.0 1.0 6.0 9.0 6.0 4.0 10.0 -102.0 1.0 5.0 2.0 0.0 
8.0 9.0 3.0 4.0 8.0 4.0 5.0 5.0 1.0 2.0 1.0 8.0 0.0 2.0 7.0 2.0 1.0 -78.0 5.0 2.0 1.0 
1.0 5.0 5.0 3.0 9.0 3.0 8.0 10.0 3.0 8.0 5.0 9.0 9.0 1.0 7.0 9.0 5.0 5.0 -120.0 9.0 6.0 
0.0 4.0 4.0 6.0 4.0 9.0 3.0 4.0 8.0 4.0 0.0 10.0 4.0 9.0 1.0 0.0 2.0 2.0 9.0 -92.0 9.0 
10.0 0.0 5.0 6.0 3.0 8.0 1.0 2.0 2.0 10.0 0.0 1.0 3.0 7.0 8.0 9.0 0.0 1.0 6.0 9.0 -91.0 

